37
100
69	1
68	1
67	1
66	1
65	1
64	3
63	1
60	2
59	1
58	1
57	1
56	2
53	2
50	1
49	1
47	2
46	1
45	1
44	2
43	2
42	1
41	1
39	2
38	2
37	1
36	1
35	1
33	1
26	1
25	1
22	2
19	2
18	1
16	2
13	1
11	1
10	1
